JulietBench/Juliet_Based_Patch_Bench/linux/CWE-190-Integer-Overflow-or-Wraparound/CVE_2017_7482_5f2f97656ada8d811d3c1bef503ced266fcd53a0/solverrxrpc_krb5_decode_principal_Snippet_patch2.smt2
; benchmark generated from python API
(set-info :status unknown)
(declare-fun rdi () (_ BitVec 64))
(declare-fun rsi () (_ BitVec 64))
(declare-fun R () (_ BitVec 32))
(assert
 (let ((?x6 ((_ extract 31 0) rdi)))
 (let ((?x71 (bvadd (_ bv3 32) ?x6)))
 (let ((?x79 ((_ extract 31 2) ?x71)))
 (let ((?x86 (concat ?x79 (_ bv0 2))))
 (let ((?x82 (bvmul (_ bv4294967295 32) ?x86)))
 (let ((?x8 ((_ extract 31 0) rsi)))
 (let ((?x76 (bvadd ?x8 ?x82)))
 (let (($x117 (= R ?x76)))
 (let (($x14 (bvule ?x6 ?x8)))
 (let (($x114 (and $x14 $x117)))
 (let (($x115 (= (_ bv4294967274 32) R)))
 (let (($x37 (bvugt ?x6 ?x8)))
 (let (($x116 (and $x37 $x115)))
 (let (($x106 (or $x116 $x114)))
 (let (($x111 (not $x106)))
 (let (($x112 (or $x116 $x114 $x111)))
 (not $x112))))))))))))))))))
(check-sat)
